p cnf 403 695
e 265 270 295 290 275 280 285 300 264 269 294 289 274 279 284 299 261 266 291 286 271 276 281 296 262 267 292 287 272 277 282 297 263 268 293 288 273 278 283 298 220 218 225 224 217 252 251 253 246 236 239 231 221 227 222 228 219 213 212 215 223 214 249 234 230 244 237 241 226 254 257 258 256 235 238 232 248 242 259 260 229 211 255 216 247 245 233 250 243 240 196 197 194 195 202 201 198 199 200 192 191 188 189 190 203 193 208 207 204 205 206 301 302 304 308 306 303 307 305 209 210 311 310 309 187 0
a 113 114 120 119 116 117 118 88 0
e 79 112 77 64 85 80 83 84 81 82 67 66 93 78 76 65 63 62 59 60 61 0
a 107 108 0
e 109 110 111 115 0
a 87 0
e 122 89 91 92 0
a 98 97 94 95 96 0
e 121 99 1 2 3 4 5 6 7 8 9 10 11 12 13 14 15 16 17 18 19 20 21 22 23 24 25 26 27 28 29 30 31 32 33 34 35 36 37 38 39 40 41 42 43 44 45 46 47 48 49 50 51 52 53 54 55 56 57 58 68 69 70 71 72 73 74 75 86 90 105 106 123 124 125 126 127 128 129 130 131 132 133 134 135 136 137 138 139 140 141 142 143 144 145 146 147 148 149 150 151 152 153 154 155 156 157 158 159 160 161 162 163 164 165 166 167 168 169 170 171 172 173 174 175 176 177 178 179 180 181 182 183 184 185 186 312 313 314 315 316 317 318 319 320 321 322 323 324 325 326 327 328 329 330 331 332 333 334 335 336 337 338 339 340 341 342 343 344 345 346 347 348 349 350 351 352 353 354 355 356 357 358 359 360 361 362 363 364 365 366 367 368 369 370 371 372 373 374 375 376 377 378 379 380 381 382 383 384 385 386 387 388 389 390 391 392 393 394 395 396 397 398 399 400 401 402 403 0
d 104 107 108 98 97 94 95 96 87 0
d 103 107 108 98 97 94 95 96 87 0
d 100 107 108 98 97 94 95 96 87 0
d 101 107 108 98 97 94 95 96 87 0
d 102 107 108 98 97 94 95 96 87 0
-66 -92 99 103 0
-67 -92 99 104 0
-76 -92 99 102 0
-78 -92 99 101 0
-93 -92 99 100 0
-100 -92 99 93 0
-101 -92 99 78 0
-102 -92 99 76 0
-103 -92 99 66 0
-104 -92 99 67 0
-79 84 0
-77 82 0
-112 81 0
-109 85 0
-111 83 0
-110 80 0
-100 115 121 122 59 0
-101 115 121 122 60 0
-102 115 121 122 61 0
-103 115 121 122 62 0
-104 115 121 122 63 0
-59 115 121 122 100 0
-60 115 121 122 101 0
-61 115 121 122 102 0
-62 115 121 122 103 0
-63 115 121 122 104 0
-88 64 0
-88 65 0
-60 88 0
-61 88 0
-63 88 0
88 62 0
88 59 0
-74 183 0
-75 186 0
59 312 0
-59 -312 0
60 313 0
-60 -313 0
61 314 0
-61 -314 0
62 315 0
-62 -315 0
63 316 0
-63 -316 0
64 -60 0
-64 60 0
346 -61 0
-346 61 0
347 -60 0
-347 60 0
348 -63 65 0
-348 63 0
-348 -65 0
349 -62 -65 0
-349 62 0
-349 65 0
350 -62 65 0
-350 62 0
-350 -65 0
351 -63 -65 0
-351 63 0
-351 65 0
74 65 0
-74 -65 0
75 65 0
-75 -65 0
352 -77 -59 65 0
-352 77 0
-352 59 0
-352 -65 0
353 -61 -65 0
-353 61 0
-353 65 0
77 -338 340 0
-77 338 0
-77 -340 0
354 -79 -59 65 0
-354 79 0
-354 59 0
-354 -65 0
355 -60 -65 0
-355 60 0
-355 65 0
79 -338 339 0
-79 338 0
-79 -339 0
80 -62 0
-80 62 0
81 -63 0
-81 63 0
82 -62 0
-82 62 0
83 -63 0
-83 63 0
84 -62 0
-84 62 0
85 -63 0
-85 63 0
87 317 0
-87 -317 0
88 318 0
-88 -318 0
356 88 0
-356 -88 0
357 -87 0
-357 87 0
358 -87 88 0
-358 87 0
-358 -88 0
359 -88 87 0
-359 88 0
-359 -87 0
92 -87 -89 -91 88 0
-92 87 0
-92 89 0
-92 91 0
-92 -88 0
93 -59 -65 0
-93 59 0
-93 65 0
94 319 0
-94 -319 0
95 320 0
-95 -320 0
96 321 0
-96 -321 0
97 322 0
-97 -322 0
98 323 0
-98 -323 0
360 -94 59 0
-360 94 0
-360 -59 0
361 -95 60 0
-361 95 0
-361 -60 0
362 -96 61 0
-362 96 0
-362 -61 0
363 -97 62 0
-363 97 0
-363 -62 0
364 -98 63 0
-364 98 0
-364 -63 0
365 -59 94 0
-365 59 0
-365 -94 0
366 -60 95 0
-366 60 0
-366 -95 0
367 -61 96 0
-367 61 0
-367 -96 0
368 -62 97 0
-368 62 0
-368 -97 0
369 -63 98 0
-369 63 0
-369 -98 0
100 324 0
-100 -324 0
101 325 0
-101 -325 0
102 326 0
-102 -326 0
103 327 0
-103 -327 0
104 328 0
-104 -328 0
107 329 0
-107 -329 0
108 330 0
-108 -330 0
370 -85 65 108 107 0
-370 85 0
-370 -65 0
-370 -108 0
-370 -107 0
371 -342 343 0
-371 342 0
-371 -343 0
372 -80 -107 65 108 0
-372 80 0
-372 107 0
-372 -65 0
-372 -108 0
373 -342 345 0
-373 342 0
-373 -345 0
374 -83 -108 65 107 0
-374 83 0
-374 108 0
-374 -65 0
-374 -107 0
375 -342 344 0
-375 342 0
-375 -344 0
112 -338 341 0
-112 338 0
-112 -341 0
113 331 0
-113 -331 0
114 332 0
-114 -332 0
376 -113 107 0
-376 113 0
-376 -107 0
377 -114 108 0
-377 114 0
-377 -108 0
378 -107 113 0
-378 107 0
-378 -113 0
379 -108 114 0
-379 108 0
-379 -114 0
116 333 0
-116 -333 0
117 334 0
-117 -334 0
118 335 0
-118 -335 0
119 336 0
-119 -336 0
120 337 0
-120 -337 0
380 -116 94 0
-380 116 0
-380 -94 0
381 -117 95 0
-381 117 0
-381 -95 0
382 -118 96 0
-382 118 0
-382 -96 0
383 -119 97 0
-383 119 0
-383 -97 0
384 -120 98 0
-384 120 0
-384 -98 0
385 -94 116 0
-385 94 0
-385 -116 0
386 -95 117 0
-386 95 0
-386 -117 0
387 -96 118 0
-387 96 0
-387 -118 0
388 -97 119 0
-388 97 0
-388 -119 0
389 -98 120 0
-389 98 0
-389 -120 0
390 -88 87 0
-390 88 0
-390 -87 0
391 -87 88 0
-391 87 0
-391 -88 0
392 -79 0
-392 79 0
393 -77 0
-393 77 0
394 -112 0
-394 112 0
395 -79 -77 0
-395 79 0
-395 77 0
396 -79 -112 0
-396 79 0
-396 112 0
397 -77 -112 0
-397 77 0
-397 112 0
183 -181 182 0
-183 181 0
-183 -182 0
398 -109 0
-398 109 0
399 -111 0
-399 111 0
400 -110 0
-400 110 0
401 -109 -111 0
-401 109 0
-401 111 0
402 -109 -110 0
-402 109 0
-402 110 0
403 -111 -110 0
-403 111 0
-403 110 0
186 -184 185 0
-186 184 0
-186 -185 0
187 0
188 0
189 0
190 0
191 0
192 0
193 0
194 0
195 0
196 0
197 0
198 0
199 0
200 0
201 0
202 0
203 0
204 0
205 0
206 0
207 0
208 0
209 0
210 0
211 0
212 0
213 0
214 0
215 0
216 0
217 0
218 0
219 0
220 0
221 0
222 0
223 0
224 0
225 0
226 0
227 0
228 0
229 0
230 0
231 0
232 0
233 0
234 0
235 0
236 0
237 0
238 0
239 0
240 0
241 0
242 0
243 0
244 0
245 0
246 0
247 0
248 0
249 0
250 0
251 0
252 0
253 0
254 0
255 0
256 0
257 0
258 0
259 0
260 0
261 0
262 0
263 0
264 0
265 0
266 0
267 0
268 0
269 0
270 0
271 0
272 0
273 0
274 0
275 0
276 0
277 0
278 0
279 0
280 0
281 0
282 0
283 0
284 0
285 0
286 0
287 0
288 0
289 0
290 0
291 0
292 0
293 0
294 0
295 0
296 0
297 0
298 0
299 0
300 0
301 0
302 0
303 0
304 0
305 0
306 0
307 0
308 0
309 0
310 0
311 0
312 59 0
-312 -59 0
313 60 0
-313 -60 0
314 61 0
-314 -61 0
315 62 0
-315 -62 0
316 63 0
-316 -63 0
317 87 0
-317 -87 0
318 88 0
-318 -88 0
319 94 0
-319 -94 0
320 95 0
-320 -95 0
321 96 0
-321 -96 0
322 97 0
-322 -97 0
323 98 0
-323 -98 0
324 100 0
-324 -100 0
325 101 0
-325 -101 0
326 102 0
-326 -102 0
327 103 0
-327 -103 0
328 104 0
-328 -104 0
329 107 0
-329 -107 0
330 108 0
-330 -108 0
331 113 0
-331 -113 0
332 114 0
-332 -114 0
333 116 0
-333 -116 0
334 117 0
-334 -117 0
335 118 0
-335 -118 0
336 119 0
-336 -119 0
337 120 0
-337 -120 0
338 -74 0
-338 74 0
339 79 0
-339 -79 0
340 77 0
-340 -77 0
341 112 0
-341 -112 0
342 -75 0
-342 75 0
343 109 0
-343 -109 0
344 111 0
-344 -111 0
345 110 0
-345 -110 0
-1 0
-2 0
-3 0
-4 0
-5 0
-6 0
-7 0
-8 0
-9 0
-10 0
-11 0
-12 0
-13 0
-14 0
-15 0
-16 0
-17 0
-18 0
-19 0
-20 0
-21 0
-22 0
-23 0
-24 0
-25 0
-26 0
-27 0
-28 0
-29 0
-30 0
-31 0
-32 0
-33 0
-34 0
-35 0
-36 0
-37 0
-38 0
-39 0
-40 0
-41 0
-42 0
-43 0
-44 0
-45 0
-46 0
-47 0
-48 0
-49 0
-50 0
-51 0
-52 0
-53 0
-54 0
-55 0
-56 0
-57 0
-58 0
-65 346 347 0
65 -346 0
65 -347 0
-66 348 349 0
66 -348 0
66 -349 0
-67 350 351 0
67 -350 0
67 -351 0
-68 0
-69 0
-70 0
-71 0
-72 0
-73 0
-76 352 353 0
76 -352 0
76 -353 0
-78 354 355 0
78 -354 0
78 -355 0
-86 0
-89 356 357 0
89 -356 0
89 -357 0
-90 0
-91 358 359 0
91 -358 0
91 -359 0
-99 360 361 362 363 364 365 366 367 368 369 0
99 -360 0
99 -361 0
99 -362 0
99 -363 0
99 -364 0
99 -365 0
99 -366 0
99 -367 0
99 -368 0
99 -369 0
-105 0
-106 0
-109 370 371 0
109 -370 0
109 -371 0
-110 372 373 0
110 -372 0
110 -373 0
-111 374 375 0
111 -374 0
111 -375 0
-115 376 377 378 379 0
115 -376 0
115 -377 0
115 -378 0
115 -379 0
-121 380 381 382 383 384 385 386 387 388 389 0
121 -380 0
121 -381 0
121 -382 0
121 -383 0
121 -384 0
121 -385 0
121 -386 0
121 -387 0
121 -388 0
121 -389 0
-122 390 391 0
122 -390 0
122 -391 0
-123 0
-124 0
-125 0
-126 0
-127 0
-128 0
-129 0
-130 0
-131 0
-132 0
-133 0
-134 0
-135 0
-136 0
-137 0
-138 0
-139 0
-140 0
-141 0
-142 0
-143 0
-144 0
-145 0
-146 0
-147 0
-148 0
-149 0
-150 0
-151 0
-152 0
-153 0
-154 0
-155 0
-156 0
-157 0
-158 0
-159 0
-160 0
-161 0
-162 0
-163 0
-164 0
-165 0
-166 0
-167 0
-168 0
-169 0
-170 0
-171 0
-172 0
-173 0
-174 0
-175 0
-176 0
-177 0
-178 0
-179 0
-180 0
-181 392 393 394 0
181 -392 0
181 -393 0
181 -394 0
-182 395 396 397 0
182 -395 0
182 -396 0
182 -397 0
-184 398 399 400 0
184 -398 0
184 -399 0
184 -400 0
-185 401 402 403 0
185 -401 0
185 -402 0
185 -403 0
